presolving:
(round 1, fast)       1608 del vars, 4544 del conss, 0 add conss, 1567 chg bounds, 27 chg sides, 0 chg coeffs, 0 upgd conss, 0 impls, 123 clqs
(round 2, fast)       1699 del vars, 4544 del conss, 0 add conss, 1567 chg bounds, 27 chg sides, 0 chg coeffs, 0 upgd conss, 0 impls, 123 clqs
(round 3, medium)     3001 del vars, 5846 del conss, 0 add conss, 1567 chg bounds, 27 chg sides, 0 chg coeffs, 1302 upgd conss, 0 impls, 123 clqs
(round 4, exhaustive) 3001 del vars, 5846 del conss, 0 add conss, 1567 chg bounds, 27 chg sides, 0 chg coeffs, 40055 upgd conss, 0 impls, 123 clqs
   (0.7s) probing: 51/3067 (1.7%) - 0 fixings, 0 aggregations, 0 implications, 0 bound changes
   (0.7s) probing aborted: 50/50 successive totally useless probings
   (0.8s) symmetry computation started: requiring (bin +, int -, cont +), (fixed: bin -, int +, cont -)
   (0.8s) no symmetry present
presolving (5 rounds: 5 fast, 3 medium, 2 exhaustive):
 3001 deleted vars, 5846 deleted constraints, 6 added constraints, 1567 tightened bounds, 0 added holes, 37 changed sides, 111 changed coefficients
 0 implications, 125 cliques
presolved problem has 3067 variables (3067 bin, 0 int, 0 impl, 0 cont) and 38756 constraints
     39 constraints of type <knapsack>
      6 constraints of type <setppc>
  38711 constraints of type <logicor>
Presolving Time: 0.79

 time | node  | left  |LP iter|LP it/n|mem/heur|mdpt |vars |cons |rows |cuts |sepa|confs|strbr|  dualbound   | primalbound  |  gap   | compl. 
  1.3s|     1 |     0 |  1198 |     - |   149M |   0 |3067 |  38k|  38k|   0 |  0 |  26 |   0 | 9.078235e+06 |      --      |    Inf | unknown
r 1.3s|     1 |     0 |  1198 |     - |shifting|   0 |3067 |  38k|  38k|   0 |  0 |  26 |   0 | 9.078235e+06 | 9.871355e+06 |   8.74%| unknown
  4.8s|     1 |     0 |  1337 |     - |   158M |   0 |3067 |  38k|  38k|  22 |  1 |  26 |   0 | 9.078235e+06 | 9.871355e+06 |   8.74%| unknown
i 4.8s|     1 |     0 |  1337 |     - |  oneopt|   0 |3067 |  38k|  38k|  22 |  1 |  26 |   0 | 9.078235e+06 | 9.280918e+06 |   2.23%| unknown
  7.0s|     1 |     0 |  1514 |     - |   166M |   0 |3067 |  38k|  38k|  28 |  2 |  26 |   0 | 9.078235e+06 | 9.280918e+06 |   2.23%| unknown
 12.8s|     1 |     0 |  1573 |     - |   176M |   0 |3067 |  38k|  38k|  40 |  3 |  26 |   0 | 9.078235e+06 | 9.280918e+06 |   2.23%| unknown
 14.6s|     1 |     0 |  1615 |     - |   181M |   0 |3067 |  38k|  38k|  46 |  4 |  26 |   0 | 9.078235e+06 | 9.280918e+06 |   2.23%| unknown
 16.1s|     1 |     0 |  1658 |     - |   185M |   0 |3067 |  38k|  38k|  51 |  5 |  26 |   0 | 9.078235e+06 | 9.280918e+06 |   2.23%| unknown
 22.3s|     1 |     0 |  1712 |     - |   196M |   0 |3067 |  38k|  38k|  55 |  6 |  26 |   0 | 9.078235e+06 | 9.280918e+06 |   2.23%| unknown
 24.7s|     1 |     0 |  1785 |     - |   200M |   0 |3067 |  38k|  38k|  62 |  7 |  26 |   0 | 9.078235e+06 | 9.280918e+06 |   2.23%| unknown
 27.1s|     1 |     0 |  1822 |     - |   204M |   0 |3067 |  38k|  38k|  69 |  8 |  26 |   0 | 9.078235e+06 | 9.280918e+06 |   2.23%| unknown
 29.8s|     1 |     0 |  1852 |     - |   208M |   0 |3067 |  38k|  38k|  72 |  9 |  26 |   0 | 9.078235e+06 | 9.280918e+06 |   2.23%| unknown
 32.1s|     1 |     0 |  1892 |     - |   212M |   0 |3067 |  38k|  38k|  76 | 11 |  26 |   0 | 9.078235e+06 | 9.280918e+06 |   2.23%| unknown
 32.2s|     1 |     0 |  1893 |     - |   216M |   0 |3067 |  38k|  38k|  77 | 12 |  26 |   0 | 9.078235e+06 | 9.280918e+06 |   2.23%| unknown
d36.5s|     1 |     0 |  7225 |     - |farkasdi|   0 |3067 |  38k|  38k|   0 | 12 |  26 |   0 | 9.078235e+06 | 9.078235e+06 |   0.00%| unknown
 time | node  | left  |LP iter|LP it/n|mem/heur|mdpt |vars |cons |rows |cuts |sepa|confs|strbr|  dualbound   | primalbound  |  gap   | compl. 
 36.5s|     1 |     0 |  7225 |     - |   218M |   0 |3067 |  38k|  38k|  77 | 12 |  26 |   0 | 9.078235e+06 | 9.078235e+06 |   0.00%| unknown

SCIP Status        : problem is solved [optimal solution found]
Solving Time (sec) : 36.48
Solving Nodes      : 1
Primal Bound       : +9.07823529810156e+06 (5 solutions)
Dual Bound         : +9.07823529810156e+06
Gap                : 0.00 %
Solve Status: optimal
Solve Time: 36.50 seconds
